101010110110001010101101111001110011110101010010011001011011111001100101100100111110011001110011110000011100010001101011010010100111000000100010110111011101111110011111111000000001111001110110100001000100001011000100101010010000111101100001000100000111100001001101110101110000000101100000100000011011111010101110010000010010101011000000111011110101000000110001101100001011110110000100